1,2,0,5,6,4,0,8,4,2,1,5,5,6,1,3,1,7,3,2,0,7,4,4,7,6,6,1,4,8,5,7,8,7,1,0,4,0,4,8,2,3,3,7,7,4,3,8,6,6,8,4,7,4,7,3,6,8,4,3,1,2,0,3,2,3,7,4,4,6,1,5,3,3,5,7,1,6,8,1,2,4,8,4,2,4,5,3,0,6,4,3,0,3,2,1,7,3,0,3
